11 106
75 44
12 40
24 6
41 14
30 11
91 15
19 124
76 12
73 9
85 59
89 22
12 16
84 41
23 50
44 22
40 7
10 148
40 119
37 78
14 152
48 83
6 167
37 44
9 106
89 30
91 10
10 137
35 81
15 4
11 6
44 75
23 165
71 33
42 68
54 32
30 139
14 133
44 1
34 100
1 78
18 90
54 61
80 73
86 38
36 29
8 35
31 192
21 71
7 14
